c colouring generated by benchmark framework
p edge 47 236
v 1 5
v 2 4
v 3 3
v 4 3
v 5 0
v 6 0
v 7 4
v 8 3
v 9 3
v 10 0
v 11 5
v 12 2
v 13 4
v 14 5
v 15 2
v 16 5
v 17 2
v 18 2
v 19 2
v 20 2
v 21 2
v 22 2
v 23 3
v 24 1
v 25 4
v 26 3
v 27 4
v 28 0
v 29 0
v 30 4
v 31 3
v 32 4
v 33 0
v 34 1
v 35 2
v 36 4
v 37 1
v 38 2
v 39 1
v 40 2
v 41 0
v 42 2
v 43 2
v 44 1
v 45 2
v 46 0
v 47 5
